%%%%%%%%%%%%%%%%%%%%%%%%%%%%%%%%%%%%%%%%%%%%%%%%%%%%%%%%%%%%%%%%%%%%%%%%%
%FILE DATA:	Soccer Computational Problem for MiniZinc Models
%AUTHORS:	Robinson Duque, Alejandro Arbelaez, Juan Francisco Díaz
%CONTACT:  	robinson.duque@correounivalle.edu.co 
%LAST UPDATE:	May, 2018 
%ROUND ROBIN:2
%TEAMS:20
%PRESENT FIXTURE:27
%FIXTURES TO PLAY:11
%GAMES TO PLAY:110
%%%%%%%%%%%%%%%%%%%%%%%%%%%%%%%%%%%%%%%%%%%%%%%%%%%%%%%%%%%%%%%%%%%%%%%%%
%Number of teams:
n=20;

%For the purpose of our models, we offer two representations of the games to play, namely fixtures and games to play:

%Fixtures to play:
%fixtures=[|0,1,0,1,1,0,1,1,0,0,1,1,0,1,0,1,1,0,1,0
%|1,0,0,1,1,1,1,0,0,0,1,0,0,1,1,1,0,0,1,1
%|0,0,0,1,1,1,0,0,0,0,0,0,1,1,1,1,1,1,1,1
%|1,1,1,0,0,0,1,0,1,1,1,1,0,0,1,0,0,0,1,1
%|1,1,1,0,0,0,0,1,0,1,0,1,1,0,1,1,1,1,0,0
%|0,1,1,0,0,0,0,1,1,0,1,1,1,0,0,1,1,1,0,1
%|1,1,0,1,0,0,0,1,1,1,0,0,0,1,0,1,1,1,0,1
%|1,0,0,0,1,1,1,0,1,1,1,1,0,1,1,0,0,0,1,0
%|0,0,0,1,0,1,1,1,0,1,0,1,0,0,1,1,0,1,1,1
%|0,0,0,1,1,0,1,1,1,0,1,1,1,0,1,1,1,0,0,0
%|1,1,0,1,0,1,0,1,0,1,0,1,1,1,0,0,1,0,1,0
%|1,0,0,1,1,1,0,1,1,1,1,0,1,0,0,0,0,1,0,1
%|0,0,1,0,1,1,0,0,0,1,1,1,0,1,0,1,1,1,0,1
%|1,1,1,0,0,0,1,1,0,0,1,0,1,0,1,0,0,1,1,1
%|0,1,1,1,1,0,0,1,1,1,0,0,0,1,0,1,1,0,0,1
%|1,1,1,0,1,1,1,0,1,1,0,0,1,0,1,0,0,0,1,0
%|1,0,1,0,1,1,1,0,0,1,1,0,1,0,1,0,0,1,1,0
%|0,0,1,0,1,1,1,0,1,0,0,1,1,1,0,0,1,0,1,1
%|1,1,1,1,0,0,0,1,1,0,1,0,0,1,0,1,1,1,0,0
%|0,1,1,1,0,1,1,0,1,0,0,1,1,1,1,0,0,1,0,0|];

%Played Fixtures:
%PlayedFixtures=[|0,1,2,1,1,2,1,1,2,2,1,1,2,1,2,1,1,2,1,2
%|1,0,2,1,1,1,1,2,2,2,1,2,2,1,1,1,2,2,1,1
%|2,2,0,1,1,1,2,2,2,2,2,2,1,1,1,1,1,1,1,1
%|1,1,1,0,2,2,1,2,1,1,1,1,2,2,1,2,2,2,1,1
%|1,1,1,2,0,2,2,1,2,1,2,1,1,2,1,1,1,1,2,2
%|2,1,1,2,2,0,2,1,1,2,1,1,1,2,2,1,1,1,2,1
%|1,1,2,1,2,2,0,1,1,1,2,2,2,1,2,1,1,1,2,1
%|1,2,2,2,1,1,1,0,1,1,1,1,2,1,1,2,2,2,1,2
%|2,2,2,1,2,1,1,1,0,1,2,1,2,2,1,1,2,1,1,1
%|2,2,2,1,1,2,1,1,1,0,1,1,1,2,1,1,1,2,2,2
%|1,1,2,1,2,1,2,1,2,1,0,1,1,1,2,2,1,2,1,2
%|1,2,2,1,1,1,2,1,1,1,1,0,1,2,2,2,2,1,2,1
%|2,2,1,2,1,1,2,2,2,1,1,1,0,1,2,1,1,1,2,1
%|1,1,1,2,2,2,1,1,2,2,1,2,1,0,1,2,2,1,1,1
%|2,1,1,1,1,2,2,1,1,1,2,2,2,1,0,1,1,2,2,1
%|1,1,1,2,1,1,1,2,1,1,2,2,1,2,1,0,2,2,1,2
%|1,2,1,2,1,1,1,2,2,1,1,2,1,2,1,2,0,1,1,2
%|2,2,1,2,1,1,1,2,1,2,2,1,1,1,2,2,1,0,1,1
%|1,1,1,1,2,2,2,1,1,2,1,2,2,1,2,1,1,1,0,2
%|2,1,1,1,2,1,1,2,1,2,2,1,1,1,1,2,2,1,2,0|];

%Games to play:
games=[|2,1|4,1|4,2|4,3|5,1|5,2|5,3|6,2|6,3|7,1|7,2|7,4|8,1|8,5|8,6|8,7|9,4|9,6|9,7|9,8|10,4|10,5|10,7|10,8|10,9|11,1|11,2|11,4|11,6|11,8|11,10|12,1|12,4|12,5|12,6|12,8|12,9|12,10|12,11|13,3|13,5|13,6|13,10|13,11|13,12|14,1|14,2|14,3|14,7|14,8|14,11|14,13|15,2|15,3|15,4|15,5|15,8|15,9|15,10|15,14|16,1|16,2|16,3|16,5|16,6|16,7|16,9|16,10|16,13|16,15|17,1|17,3|17,5|17,6|17,7|17,10|17,11|17,13|17,15|18,3|18,5|18,6|18,7|18,9|18,12|18,13|18,14|18,17|19,1|19,2|19,3|19,4|19,8|19,9|19,11|19,14|19,16|19,17|19,18|20,2|20,3|20,4|20,6|20,7|20,9|20,12|20,13|20,14|20,15|20,18|];

%Played Games:
%PlayedGames=[|2,1|3,1|3,1|3,2|3,2|4,1|4,2|4,3|5,1|5,2|5,3|5,4|5,4|6,1|6,1|6,2|6,3|6,4|6,4|6,5|6,5|7,1|7,2|7,3|7,3|7,4|7,5|7,5|7,6|7,6|8,1|8,2|8,2|8,3|8,3|8,4|8,4|8,5|8,6|8,7|9,1|9,1|9,2|9,2|9,3|9,3|9,4|9,5|9,5|9,6|9,7|9,8|10,1|10,1|10,2|10,2|10,3|10,3|10,4|10,5|10,6|10,6|10,7|10,8|10,9|11,1|11,2|11,3|11,3|11,4|11,5|11,5|11,6|11,7|11,7|11,8|11,9|11,9|11,10|12,1|12,2|12,2|12,3|12,3|12,4|12,5|12,6|12,7|12,7|12,8|12,9|12,10|12,11|13,1|13,1|13,2|13,2|13,3|13,4|13,4|13,5|13,6|13,7|13,7|13,8|13,8|13,9|13,9|13,10|13,11|13,12|14,1|14,2|14,3|14,4|14,4|14,5|14,5|14,6|14,6|14,7|14,8|14,9|14,9|14,10|14,10|14,11|14,12|14,12|14,13|15,1|15,1|15,2|15,3|15,4|15,5|15,6|15,6|15,7|15,7|15,8|15,9|15,10|15,11|15,11|15,12|15,12|15,13|15,13|15,14|16,1|16,2|16,3|16,4|16,4|16,5|16,6|16,7|16,8|16,8|16,9|16,10|16,11|16,11|16,12|16,12|16,13|16,14|16,14|16,15|17,1|17,2|17,2|17,3|17,4|17,4|17,5|17,6|17,7|17,8|17,8|17,9|17,9|17,10|17,11|17,12|17,12|17,13|17,14|17,14|17,15|17,16|17,16|18,1|18,1|18,2|18,2|18,3|18,4|18,4|18,5|18,6|18,7|18,8|18,8|18,9|18,10|18,10|18,11|18,11|18,12|18,13|18,14|18,15|18,15|18,16|18,16|18,17|19,1|19,2|19,3|19,4|19,5|19,5|19,6|19,6|19,7|19,7|19,8|19,9|19,10|19,10|19,11|19,12|19,12|19,13|19,13|19,14|19,15|19,15|19,16|19,17|19,18|20,1|20,1|20,2|20,3|20,4|20,5|20,5|20,6|20,7|20,8|20,8|20,9|20,10|20,10|20,11|20,11|20,12|20,13|20,14|20,15|20,16|20,16|20,17|20,17|20,18|20,19|20,19|];

%Played Games - Win Results:
%% 0  0  0  1  1  0  0  1  0  2  1  0  0  0  2  0  0  0  0  2
%% 0  0  0  0  0  0  0  0  0  0  0  0  0  0  0  0  0  0  0  0
%% 0  0  0  0  0  0  0  0  0  0  0  0  0  0  0  1  0  0  0  0
%% 0  0  1  0  1  0  0  0  1  0  0  0  2  0  0  0  0  0  0  0
%% 0  0  1  0  0  0  0  0  0  0  0  1  0  0  0  0  0  1  0  0
%% 2  0  1  0  0  0  0  1  1  2  0  1  1  0  0  1  0  0  2  0
%% 0  1  0  1  1  1  0  0  1  0  0  0  0  0  0  1  1  0  0  0
%% 0  0  0  0  0  0  0  0  0  0  0  0  0  0  0  0  0  0  0  0
%% 0  0  0  0  0  0  0  0  0  0  0  0  0  0  0  1  0  1  0  0
%% 0  0  0  0  1  0  0  0  0  0  0  0  0  0  0  0  0  0  0  0
%% 0  0  0  0  0  0  0  1  0  0  0  1  1  0  0  0  0  0  0  2
%% 0  0  0  0  0  0  0  0  0  0  0  0  0  0  0  0  0  0  0  0
%% 0  0  1  0  0  0  0  0  0  0  0  0  0  0  0  0  0  0  0  0
%% 1  0  1  0  0  2  1  1  0  2  1  0  1  0  0  0  2  1  0  0
%% 0  1  0  0  0  0  0  0  1  1  1  0  2  0  0  0  0  0  0  0
%% 0  1  0  0  0  0  0  0  0  0  0  0  0  0  0  0  0  0  0  0
%% 0  0  1  0  0  0  0  0  0  1  0  0  1  0  0  0  0  0  0  0
%% 0  0  0  0  0  0  0  0  0  0  0  0  0  0  0  0  0  0  0  0
%% 0  1  1  1  0  0  0  1  0  1  1  0  0  0  0  1  1  0  0  0
%% 0  1  1  0  0  0  0  0  0  0  0  1  1  0  0  0  0  0  0  0
%Played Games - Tie Results:
%% 0  1  2  0  0  0  1  0  2  0  0  1  2  0  0  1  1  2  1  0
%% 1  0  2  1  1  1  0  2  2  2  1  2  2  1  0  0  2  2  0  0
%% 2  2  0  0  0  0  2  2  2  2  2  2  0  0  1  0  0  1  0  0
%% 0  1  0  0  1  2  0  2  0  1  1  1  0  2  1  2  2  2  0  1
%% 0  1  0  1  0  2  1  1  2  0  2  0  1  2  1  1  1  0  2  2
%% 0  1  0  2  2  0  1  0  0  0  1  0  0  0  2  0  1  1  0  1
%% 1  0  2  0  1  1  0  1  0  1  2  2  2  0  2  0  0  1  2  1
%% 0  2  2  2  1  0  1  0  1  1  0  1  2  0  1  2  2  2  0  2
%% 2  2  2  0  2  0  0  1  0  1  2  1  2  2  0  0  2  0  1  1
%% 0  2  2  1  0  0  1  1  1  0  1  1  1  0  0  1  0  2  1  2
%% 0  1  2  1  2  1  2  0  2  1  0  0  0  0  1  2  1  2  0  0
%% 1  2  2  1  0  0  2  1  1  1  0  0  1  2  2  2  2  1  2  0
%% 2  2  0  0  1  0  2  2  2  1  0  1  0  0  0  1  0  1  2  0
%% 0  1  0  2  2  0  0  0  2  0  0  2  0  0  1  2  0  0  1  1
%% 0  0  1  1  1  2  2  1  0  0  1  2  0  1  0  1  1  2  2  1
%% 1  0  0  2  1  0  0  2  0  1  2  2  1  2  1  0  2  2  0  2
%% 1  2  0  2  1  1  0  2  2  0  1  2  0  0  1  2  0  1  0  2
%% 2  2  1  2  0  1  1  2  0  2  2  1  1  0  2  2  1  0  1  1
%% 1  0  0  0  2  0  2  0  1  1  0  2  2  1  2  0  0  1  0  2
%% 0  0  0  1  2  1  1  2  1  2  0  0  0  1  1  2  2  1  2  0
%Played Games - Lose Results:
%% 0  0  0  0  0  2  0  0  0  0  0  0  0  1  0  0  0  0  0  0
%% 0  0  0  0  0  0  1  0  0  0  0  0  0  0  1  1  0  0  1  1
%% 0  0  0  1  1  1  0  0  0  0  0  0  1  1  0  0  1  0  1  1
%% 1  0  0  0  0  0  1  0  0  0  0  0  0  0  0  0  0  0  1  0
%% 1  0  0  1  0  0  1  0  0  1  0  0  0  0  0  0  0  0  0  0
%% 0  0  0  0  0  0  1  0  0  0  0  0  0  2  0  0  0  0  0  0
%% 0  0  0  0  0  0  0  0  0  0  0  0  0  1  0  0  0  0  0  0
%% 1  0  0  0  0  1  0  0  0  0  1  0  0  1  0  0  0  0  1  0
%% 0  0  0  1  0  1  1  0  0  0  0  0  0  0  1  0  0  0  0  0
%% 2  0  0  0  0  2  0  0  0  0  0  0  0  2  1  0  1  0  1  0
%% 1  0  0  0  0  0  0  0  0  0  0  0  0  1  1  0  0  0  1  0
%% 0  0  0  0  1  1  0  0  0  0  1  0  0  0  0  0  0  0  0  1
%% 0  0  0  2  0  1  0  0  0  0  1  0  0  1  2  0  1  0  0  1
%% 0  0  0  0  0  0  0  0  0  0  0  0  0  0  0  0  0  0  0  0
%% 2  0  0  0  0  0  0  0  0  0  0  0  0  0  0  0  0  0  0  0
%% 0  0  1  0  0  1  1  0  1  0  0  0  0  0  0  0  0  0  1  0
%% 0  0  0  0  0  0  1  0  0  0  0  0  0  2  0  0  0  0  1  0
%% 0  0  0  0  1  0  0  0  1  0  0  0  0  1  0  0  0  0  0  0
%% 0  0  0  0  0  2  0  0  0  0  0  0  0  0  0  0  0  0  0  0
%% 2  0  0  0  0  0  0  0  0  0  2  0  0  0  0  0  0  0  0  0

%%Initial points:
iPoints=[44, 22, 21, 34, 29, 48, 40, 22, 27, 20, 33, 23, 20, 53, 37, 24, 29, 24, 41, 31];

%%Initial positions:
%iPositions=[3, 17, 18, 7, 11, 2, 5, 16, 12, 20, 8, 15, 19, 1, 6, 14, 10, 13, 4, 9];

%%Position Constraints:
%numberPositionConstraints=2;

%%Total Fixtures:
%totalFixtures=38;

%%Fixtures to Play:
%fixturesToPlay=11;

%%Position Constraints Built With
%wantedPoints=[1, 0, 3, 3, 0, 0, 3, 1, 1, 1, 1, 0, 0, 3, 1, 3, 1, 1, 0, 0, 1, 0, 1, 1, 0, 3, 3, 0, 1, 3, 3, 1, 3, 3, 1, 1, 1, 3, 1, 0, 3, 3, 0, 3, 3, 0, 1, 1, 1, 0, 1, 0, 1, 3, 3, 0, 3, 1, 3, 1, 1, 1, 3, 0, 3, 3, 1, 3, 3, 0, 1, 3, 3, 1, 0, 0, 0, 3, 3, 0, 1, 3, 0, 3, 1, 3, 1, 1, 3, 1, 0, 1, 0, 0, 0, 1, 0, 1, 1, 3, 0, 1, 1, 1, 0, 3, 3, 1, 3, 0];

%POSITION CONSTRAINTS
%%[|teamID, operator, position|...]
%%operators index:
%%%1 for =  operator
%%%2 for >  operator
%%%3 for >= operator
%%%4 for <  operator
%%%5 for <= operator

positionConstraints=[|12,1,16|19,1,8|];

%SCORE VECTOR CONSTRAINTS
%%[|teamID, operator, wantedPoints|...]
%%operators index:
%%%1 for =  operator
%%%2 for >  operator
%%%3 for >= operator
%%%4 for <  operator
%%%5 for <= operator

%scoreVectorConstraints=[|12,1,38|19,1,49|];

%Instance Features:
%features=T,FP,TF,C,C/T,C/TF,FP/TF,FP/T,FP*C/T,FP*T/C,(C/T)*(FP/TF),Distance,Distance/C,Distance/T,Distance/(C*T)
%values=20,11,38,2,0.1,0.05263157894736842,0.2894736842105263,0.55,1.1,110.0,0.02894736842105263,5,2.5,0.25,0.125



gamesOfEveryTeam=[11,11,11,11,11,11,11,11,11,11,11,11,11,11,11,11,11,11,11,11];
weights=[|72,24,0,4|59,3,0,38|75,8,0,17|49,21,0,30|74,16,0,10|70,6,0,24|2,48,0,50|42,52,0,6|63,15,0,22|97,0,0,3|46,47,0,7|28,21,0,51|41,23,0,36|17,81,0,2|24,9,0,67|47,48,0,5|21,77,0,2|55,35,0,10|28,64,0,8|91,0,0,9|77,6,0,17|11,43,0,46|92,6,0,2|33,15,0,52|33,6,0,61|81,17,0,2|55,22,0,23|48,23,0,29|10,11,0,79|72,4,0,24|98,0,0,2|25,51,0,24|27,43,0,30|71,12,0,17|54,2,0,44|20,68,0,12|57,6,0,37|85,2,0,13|54,43,0,3|8,18,0,74|14,23,0,63|0,91,0,9|12,81,0,7|77,9,0,14|96,4,0,0|73,19,0,8|74,14,0,12|43,50,0,7|53,7,0,40|42,45,0,13|29,29,0,42|76,19,0,5|100,0,0,0|74,15,0,11|97,3,0,0|33,61,0,6|90,10,0,0|26,9,0,65|9,4,0,87|37,43,0,20|47,29,0,24|48,18,0,34|96,3,0,1|12,10,0,78|62,22,0,16|73,24,0,3|29,53,0,18|97,1,0,2|17,62,0,21|34,46,0,20|76,3,0,21|39,15,0,46|45,26,0,29|24,16,0,60|71,13,0,16|20,35,0,45|92,0,0,8|70,22,0,8|61,11,0,28|85,13,0,2|37,52,0,11|26,70,0,4|40,58,0,2|17,6,0,77|73,23,0,4|7,65,0,28|89,8,0,3|90,10,0,0|93,2,0,5|3,83,0,14|82,3,0,15|72,4,0,24|9,38,0,53|18,6,0,76|100,0,0,0|87,5,0,8|5,2,0,93|81,10,0,9|91,6,0,3|46,24,0,30|64,18,0,18|38,55,0,7|17,49,0,34|77,9,0,14|7,79,0,14|69,9,0,22|22,3,0,75|14,67,0,19|65,32,0,3|84,6,0,10|];